NAME /Users/henri/Research/solvers/instances/idol-instances/robust/collection/cbp_Subramanyam_et_al_2020/CapBud_N5_4/models/uncertain_technology_matrix/
ROWS
 N  OBJ
 L  capacity
 L  c_95
 L  c_96
 L  c_97
 L  c_98
 L  c_99
COLUMNS
    MARKER    'MARKER'                 'INTORG'
    x_0        OBJ        -5.00026
    x_0        c_95       1
    x_0        capacity   1.00005
    x_1        OBJ        -0.503701
    x_1        c_96       1
    x_1        capacity   0.10074
    x_2        OBJ        -6.99098
    x_2        c_97       1
    x_2        capacity   1.3982
    x_3        OBJ        -9.92396
    x_3        c_98       1
    x_3        capacity   1.98479
    x_4        OBJ        -2.67263
    x_4        c_99       1
    x_4        capacity   0.534525
    y_0        OBJ        -4.00021
    y_0        c_95       1
    y_0        capacity   1.00005
    y_1        OBJ        -0.40296
    y_1        c_96       1
    y_1        capacity   0.10074
    y_2        OBJ        -5.59278
    y_2        c_97       1
    y_2        capacity   1.3982
    y_3        OBJ        -7.93917
    y_3        c_98       1
    y_3        capacity   1.98479
    y_4        OBJ        -2.1381
    y_4        c_99       1
    y_4        capacity   0.534525
    MARKER    'MARKER'                 'INTEND'
RHS
    RHS       capacity   12.5458
    RHS       c_95       1
    RHS       c_96       1
    RHS       c_97       1
    RHS       c_98       1
    RHS       c_99       1
BOUNDS
 LI BND       x_0        0
 UI BND       x_0        1
 LI BND       x_1        0
 UI BND       x_1        1
 LI BND       x_2        0
 UI BND       x_2        1
 LI BND       x_3        0
 UI BND       x_3        1
 LI BND       x_4        0
 UI BND       x_4        1
 LI BND       y_0        0
 UI BND       y_0        1
 LI BND       y_1        0
 UI BND       y_1        1
 LI BND       y_2        0
 UI BND       y_2        1
 LI BND       y_3        0
 UI BND       y_3        1
 LI BND       y_4        0
 UI BND       y_4        1
ENDATA
